c SAT Generator for power-law distributed variable frequencies
c -g u -v 20 -c 91 -k 3 -p 2.750000 -b 3.200000 -f /home/schmidt/Devel/ni-kop-sat/data/ensemble/ruf20-91/ruf20-91-486 -u 1 -U 1 -s 1321137984
p cnf 20 91
-9 -10 -11 0
1 5 -17 0
2 10 -12 0
-4 -5 13 0
-4 7 19 0
-5 -11 13 0
-14 15 17 0
-3 -9 11 0
-2 -9 17 0
-3 10 -17 0
-3 14 20 0
4 -7 15 0
5 9 -13 0
-1 7 -8 0
-1 -5 -20 0
-3 10 -15 0
-2 -13 -14 0
3 14 16 0
-3 4 7 0
5 -7 19 0
-14 -15 -18 0
-2 5 -10 0
-3 5 -7 0
-1 -5 -12 0
-7 8 -9 0
10 -17 -20 0
4 8 10 0
1 -9 -10 0
8 11 -15 0
3 15 16 0
-3 -18 20 0
3 -7 13 0
-1 17 20 0
-2 15 -19 0
-9 -10 17 0
-1 11 13 0
-2 -16 17 0
-6 -8 -15 0
-2 3 -6 0
-7 -9 18 0
4 -5 19 0
4 -11 14 0
-5 -10 -12 0
3 -11 16 0
4 16 18 0
-2 8 17 0
9 -11 12 0
1 -2 10 0
7 -11 18 0
-6 11 -16 0
11 18 19 0
5 10 19 0
-1 5 15 0
6 -10 -11 0
-11 17 -20 0
-7 -14 -18 0
-1 7 -20 0
1 -3 8 0
-12 -18 19 0
-4 -5 -14 0
-2 12 -14 0
2 -17 20 0
-8 -10 -16 0
-1 2 -14 0
6 7 -12 0
-6 11 -18 0
1 -11 14 0
6 13 20 0
4 12 -19 0
-1 -5 15 0
3 -13 15 0
1 2 -14 0
3 11 -19 0
-10 -13 -15 0
1 -14 -16 0
-5 -11 18 0
-9 13 -15 0
4 16 19 0
11 -12 14 0
7 14 17 0
15 -16 20 0
13 -16 -19 0
-1 -12 18 0
-8 -14 -16 0
-10 11 -15 0
-1 -5 17 0
-10 -12 -14 0
-4 7 16 0
-4 13 16 0
-9 -14 16 0
-6 -9 -14 0
